p cnf 26 69
a 7 15 0
e 1 2 3 4 5 6 8 9 10 11 12 13 14 16 17 18 19 20 21 22 23 24 25 26 0
-3 1 0
-3 -2 0
-1 2 3 0
4 -5 -6 0
-4 5 -6 0
4 5 6 0
-4 -5 6 0
-8 7 0
-8 1 0
-7 -1 8 0
8 9 -10 0
-8 -9 -10 0
8 -9 10 0
-8 9 10 0
-11 -5 0
-11 -2 0
5 2 11 0
11 12 -13 0
-11 -12 -13 0
11 -12 13 0
-11 12 13 0
-1 2 -14 0
1 -2 -14 0
-1 -2 14 0
1 2 14 0
-2 14 -15 0
2 -14 -15 0
-2 -14 15 0
2 14 15 0
16 -14 0
16 5 0
14 -5 -16 0
15 16 -17 0
-15 -16 -17 0
15 -16 17 0
-15 16 17 0
-13 -17 -18 0
13 17 -18 0
-13 17 18 0
13 -17 18 0
10 18 -19 0
-10 -18 -19 0
10 -18 19 0
-10 18 19 0
-20 -6 0
-20 -19 0
6 19 20 0
21 -4 0
21 -7 0
4 7 -21 0
22 -7 0
22 21 0
7 -21 -22 0
-24 -22 0
-24 23 0
22 -23 24 0
25 20 0
25 24 0
-20 -24 -25 0
26 -3 0
26 25 0
3 -25 -26 0
19 9 -5 26 -11 1 6 0
7 23 26 0
-22 14 5 19 -2 0
16 11 -9 -24 26 -14 10 0
-3 16 26 -12 20 22 0
-23 12 -19 8 -18 7 -1 0
26 0
